experiments/sat_smt/run/sat-r+/results/alex.res
solved=true
solvingTime=47.24709320068359375
nActions=13