experiments/sat_smt/run/sat-r+/results/alex.out
Timesteps: 1
s UNSATISFIABLE
real 0.16
user 0.02
sys 0.00
Timesteps: 2
s UNSATISFIABLE
real 0.18
user 0.04
sys 0.00
Timesteps: 3
s UNSATISFIABLE
real 0.16
user 0.08
sys 0.00
Timesteps: 4
s UNSATISFIABLE
real 0.44
user 0.24
sys 0.00
Timesteps: 5
s UNSATISFIABLE
real 0.84
user 0.56
sys 0.02
Timesteps: 6
s UNSATISFIABLE
real 1.44
user 1.28
sys 0.02
Timesteps: 7
s UNSATISFIABLE
real 1.67
user 1.47
sys 0.02
Timesteps: 8
s UNSATISFIABLE
real 2.21
user 1.78
sys 0.02
Timesteps: 9
s UNSATISFIABLE
real 4.19
user 3.93
sys 0.03
Timesteps: 10
s UNSATISFIABLE
real 5.51
user 5.26
sys 0.02
Timesteps: 11
s UNSATISFIABLE
real 6.28
user 5.93
sys 0.02
Timesteps: 12
s UNSATISFIABLE
real 11.86
user 10.99
sys 0.08
Timesteps: 13
s SATISFIABLE
real 13.35
user 12.51
sys 0.05
